n = 37;
lu = [|509, 1004
      |-1239, 777
      |-365, -213
      |1240, 1353
      |-524, 1352
      |-844, 58
      |-234, 436
      |-1252, 791
      |-1127, -838
      |-542, 1257
      |517, 1168
      |-1152, -646
      |-87, 1108
      |-904, -344
      |-776, -38
      |732, 774
      |-970, 299
      |-1168, -76
      |-439, 6
      |-739, -99
      |-703, 762
      |-176, -105
      |-722, 522
      |-507, 1031
      |406, 646
      |-1106, 745
      |-670, 1021
      |-530, 1126
      |-1333, 1028
      |-1007, 544
      |-127, 1135
      |-910, -587
      |-383, 520
      |-963, 489
      |561, 1246
      |-11, 1177
      |-202, 487|];
